p cnf 10 50
-1 -2 5 0
-6 3 2 0
-1 -2 -7 0
8 -9 3 0
-9 -4 3 0
-9 -6 7 0
6 -5 1 0
-7 8 9 0
-4 1 3 0
1 4 2 0
-8 -1 7 0
6 -10 -3 0
-7 5 1 0
4 3 10 0
-2 7 9 0
-1 -5 -9 0
4 5 6 0
1 -2 -10 0
-6 -3 -7 0
4 -2 -3 0
7 -5 -9 0
10 8 -4 0
3 -1 -10 0
10 7 -1 0
6 8 -10 0
-1 5 3 0
-4 -3 -6 0
-4 -3 5 0
2 -6 9 0
-10 -2 -4 0
-10 9 -1 0
-9 -7 -5 0
-9 5 10 0
-6 -2 -5 0
-6 7 -3 0
8 2 3 0
9 -8 -3 0
-10 -7 5 0
-5 3 -6 0
-5 -8 -9 0
-4 9 -8 0
-7 9 -6 0
8 -4 -10 0
-4 6 -10 0
7 5 8 0
-7 1 -9 0
-4 -1 -7 0
-3 -6 7 0
-10 -1 -7 0
8 -3 6 0